164 198 123 36 182 91 172 31 13 152 138 119 9 62 0 65 42 51 40 116 67 37 159 122 74 46 107 22 79 133 189 49 28 6 113 89 130 93 33 167 47 85 142 15 147 129 146 10 158 60 166 35 100 137 165 32 81 5 80 88 141 11 174 50 76 4 103 184 135 151 192 98 1 108 69 44 12 170 16 177 8 134 193 59 162 109 121 161 71 18 171 2 82 128 145 61 66 195 112 163 24 132 139 180 58 185 23 30 136 196 191 57 197 83 63 54 99 84 27 104 94 125 7 102 21 178 194 183 25 175 45 188 53 148 179 56 168 111 120 117 110 186 90 68 160 20 150 199 29 144 19 14 190 64 118 140 115 48 3 72 34 55 157 124 38 70 52 75 126 155 77 97 143 43 173 131 73 87 96 169 153 105 176 95 127 26 149 101 78 86 106 114 181 92 187 156 39 17 41 154 

